4097
33554434
201428996
2312
1048592
288
2112
268435584
296
10752
16778240
2632
4101
8704
278528
201424900
218202116
6422528
33832960
1074266112
806354960
1075970048
4325376
41943040
16843776
42205186
201424900
1812037636
269484160
672137216
1210580992
